words_hard_train/6762.qaiger
aag 135 24 0 1 111
2
4
12
14
24
26
30
32
36
38
42
44
48
52
54
60
62
178
190
198
206
222
234
256
270
6 2 4
8 3 5
10 7 9
16 12 14
18 11 16
20 10 17
22 19 21
28 24 26
34 30 32
40 36 38
46 42 44
50 4 48
56 52 54
58 51 57
64 60 62
66 58 65
68 47 66
70 41 68
72 35 70
74 29 72
76 23 75
78 22 74
80 77 79
82 50 14
84 50 56
86 85 59
88 87 25
90 86 24
92 89 91
94 82 92
96 95 91
98 59 64
100 99 67
102 101 31
104 100 30
106 103 105
108 97 106
110 109 105
112 46 67
114 113 69
116 115 37
118 114 36
120 117 119
122 111 120
124 123 119
126 40 69
128 127 71
130 129 43
132 128 42
134 131 133
136 125 134
138 137 133
140 34 71
142 141 73
144 143 61
146 142 60
148 145 147
150 139 148
152 151 147
154 28 73
156 155 75
158 157 53
160 156 52
162 159 161
164 153 162
166 165 161
168 81 166
170 80 167
172 169 171
174 152 163
176 175 165
180 176 179
182 177 178
184 181 183
186 138 149
188 187 151
192 189 190
194 110 121
196 195 123
200 196 199
202 96 107
204 203 109
208 204 207
210 201 209
212 188 191
214 210 213
216 193 214
218 51 15
220 219 83
224 220 223
226 221 222
228 225 227
230 83 93
232 231 95
236 232 235
238 228 237
240 233 234
242 238 241
244 205 206
246 242 245
248 197 198
250 246 249
252 124 135
254 253 137
258 255 256
260 254 257
262 259 261
264 250 262
266 216 264
268 184 266
270 173 268
i0 1 x1[7]
i1 2 y1[0]
i2 1 x2[7]
i3 2 y1[7]
i4 2 y1[6]
i5 1 x2[6]
i6 2 y1[5]
i7 1 x2[5]
i8 2 y1[4]
i9 1 x2[4]
i10 2 y1[3]
i11 1 x2[3]
i12 1 x2[0]
i13 2 y1[1]
i14 1 x2[1]
i15 2 y1[2]
i16 1 x2[2]
i17 1 x1[6]
i18 1 x1[5]
i19 1 x1[3]
i20 1 x1[2]
i21 1 x1[0]
i22 1 x1[1]
i23 1 x1[4]
o0 bool[0]
c
simplified
  ==
    1 x1
    subtract
      reverse
        2 y1
      and
        1 x2
        2 y1
