words_hard_train/6762.qaiger.qdimacs
p cnf 135 334
a 128 1 99 6 103 13 111 16 19 117 22 24 89 27 95 31 0
e 2 3 4 5 7 8 9 10 11 12 14 15 17 18 20 21 23 25 26 28 29 30 32 33 34 35 36 37 38 39 40 41 42 43 44 45 46 47 48 49 50 51 52 53 54 55 56 57 58 59 60 61 62 63 64 65 66 67 68 69 70 71 72 73 74 75 76 77 78 79 80 81 82 83 84 85 86 87 88 90 91 92 93 94 96 97 98 100 101 102 104 105 106 107 108 109 110 112 113 114 115 116 118 119 120 121 122 123 124 125 126 127 129 130 131 132 133 134 135 0
-1 -2 3 0
1 -3 0
2 -3 0
1 2 4 0
-1 -4 0
-2 -4 0
3 4 5 0
-3 -5 0
-4 -5 0
-6 -7 8 0
6 -8 0
7 -8 0
5 -8 9 0
-5 -9 0
8 -9 0
-5 8 10 0
5 -10 0
-8 -10 0
9 10 11 0
-9 -11 0
-10 -11 0
-12 -13 14 0
12 -14 0
13 -14 0
-15 -16 17 0
15 -17 0
16 -17 0
-18 -19 20 0
18 -20 0
19 -20 0
-21 -22 23 0
21 -23 0
22 -23 0
-2 -24 25 0
2 -25 0
24 -25 0
-26 -27 28 0
26 -28 0
27 -28 0
25 28 29 0
-25 -29 0
-28 -29 0
-30 -31 32 0
30 -32 0
31 -32 0
-29 32 33 0
29 -33 0
-32 -33 0
23 -33 34 0
-23 -34 0
33 -34 0
20 -34 35 0
-20 -35 0
34 -35 0
17 -35 36 0
-17 -36 0
35 -36 0
14 -36 37 0
-14 -37 0
36 -37 0
11 37 38 0
-11 -38 0
-37 -38 0
-11 -37 39 0
11 -39 0
37 -39 0
38 39 40 0
-38 -40 0
-39 -40 0
-25 -7 41 0
25 -41 0
7 -41 0
-25 -28 42 0
25 -42 0
28 -42 0
42 29 43 0
-42 -43 0
-29 -43 0
43 12 44 0
-43 -44 0
-12 -44 0
-43 -12 45 0
43 -45 0
12 -45 0
44 45 46 0
-44 -46 0
-45 -46 0
-41 -46 47 0
41 -47 0
46 -47 0
47 45 48 0
-47 -48 0
-45 -48 0
29 -32 49 0
-29 -49 0
32 -49 0
49 33 50 0
-49 -50 0
-33 -50 0
50 15 51 0
-50 -51 0
-15 -51 0
-50 -15 52 0
50 -52 0
15 -52 0
51 52 53 0
-51 -53 0
-52 -53 0
48 -53 54 0
-48 -54 0
53 -54 0
54 52 55 0
-54 -55 0
-52 -55 0
-23 33 56 0
23 -56 0
-33 -56 0
56 34 57 0
-56 -57 0
-34 -57 0
57 18 58 0
-57 -58 0
-18 -58 0
-57 -18 59 0
57 -59 0
18 -59 0
58 59 60 0
-58 -60 0
-59 -60 0
55 -60 61 0
-55 -61 0
60 -61 0
61 59 62 0
-61 -62 0
-59 -62 0
-20 34 63 0
20 -63 0
-34 -63 0
63 35 64 0
-63 -64 0
-35 -64 0
64 21 65 0
-64 -65 0
-21 -65 0
-64 -21 66 0
64 -66 0
21 -66 0
65 66 67 0
-65 -67 0
-66 -67 0
62 -67 68 0
-62 -68 0
67 -68 0
68 66 69 0
-68 -69 0
-66 -69 0
-17 35 70 0
17 -70 0
-35 -70 0
70 36 71 0
-70 -71 0
-36 -71 0
71 30 72 0
-71 -72 0
-30 -72 0
-71 -30 73 0
71 -73 0
30 -73 0
72 73 74 0
-72 -74 0
-73 -74 0
69 -74 75 0
-69 -75 0
74 -75 0
75 73 76 0
-75 -76 0
-73 -76 0
-14 36 77 0
14 -77 0
-36 -77 0
77 37 78 0
-77 -78 0
-37 -78 0
78 26 79 0
-78 -79 0
-26 -79 0
-78 -26 80 0
78 -80 0
26 -80 0
79 80 81 0
-79 -81 0
-80 -81 0
76 -81 82 0
-76 -82 0
81 -82 0
82 80 83 0
-82 -83 0
-80 -83 0
40 -83 84 0
-40 -84 0
83 -84 0
-40 83 85 0
40 -85 0
-83 -85 0
84 85 86 0
-84 -86 0
-85 -86 0
-76 81 87 0
76 -87 0
-81 -87 0
87 82 88 0
-87 -88 0
-82 -88 0
-88 89 90 0
88 -90 0
-89 -90 0
88 -89 91 0
-88 -91 0
89 -91 0
90 91 92 0
-90 -92 0
-91 -92 0
-69 74 93 0
69 -93 0
-74 -93 0
93 75 94 0
-93 -94 0
-75 -94 0
94 -95 96 0
-94 -96 0
95 -96 0
-55 60 97 0
55 -97 0
-60 -97 0
97 61 98 0
-97 -98 0
-61 -98 0
-98 99 100 0
98 -100 0
-99 -100 0
-48 53 101 0
48 -101 0
-53 -101 0
101 54 102 0
-101 -102 0
-54 -102 0
-102 103 104 0
102 -104 0
-103 -104 0
100 104 105 0
-100 -105 0
-104 -105 0
-94 95 106 0
94 -106 0
-95 -106 0
-105 106 107 0
105 -107 0
-106 -107 0
96 -107 108 0
-96 -108 0
107 -108 0
25 7 109 0
-25 -109 0
-7 -109 0
109 41 110 0
-109 -110 0
-41 -110 0
-110 111 112 0
110 -112 0
-111 -112 0
110 -111 113 0
-110 -113 0
111 -113 0
112 113 114 0
-112 -114 0
-113 -114 0
41 46 115 0
-41 -115 0
-46 -115 0
115 47 116 0
-115 -116 0
-47 -116 0
-116 117 118 0
116 -118 0
-117 -118 0
-114 118 119 0
114 -119 0
-118 -119 0
116 -117 120 0
-116 -120 0
117 -120 0
-119 120 121 0
119 -121 0
-120 -121 0
102 -103 122 0
-102 -122 0
103 -122 0
-121 122 123 0
121 -123 0
-122 -123 0
98 -99 124 0
-98 -124 0
99 -124 0
-123 124 125 0
123 -125 0
-124 -125 0
-62 67 126 0
62 -126 0
-67 -126 0
126 68 127 0
-126 -127 0
-68 -127 0
127 -128 129 0
-127 -129 0
128 -129 0
-127 128 130 0
127 -130 0
-128 -130 0
129 130 131 0
-129 -131 0
-130 -131 0
-125 -131 132 0
125 -132 0
131 -132 0
-108 -132 133 0
108 -133 0
132 -133 0
-92 -133 134 0
92 -134 0
133 -134 0
86 -134 135 0
-86 -135 0
134 -135 0
135 0
